Version identifier: 22.1.1.0 | 2022-11-28 | 9160aff4d
CPXPARAM_ClockType                               1
CPXPARAM_Read_DataCheck                          1
CPXPARAM_Threads                                 1
CPXPARAM_TimeLimit                               7200
CPXPARAM_MIP_Tolerances_AbsMIPGap                0
CPXPARAM_MIP_Tolerances_MIPGap                   0
CPXPARAM_MIP_Tolerances_Integrality              0
Found incumbent of value 0.000000 after 0.00 sec. (0.23 ticks)
Tried aggregator 2 times.
MIP Presolve eliminated 347 rows and 1 columns.
MIP Presolve modified 192 coefficients.
Aggregator did 150 substitutions.
Reduced MIP has 1342 rows, 749 columns, and 4016 nonzeros.
Reduced MIP has 749 binaries, 0 generals, 0 SOSs, and 0 indicators.
Presolve time = 0.01 sec. (4.80 ticks)
Probing time = 0.00 sec. (0.82 ticks)
Tried aggregator 1 time.
Detecting symmetries...
MIP Presolve eliminated 101 rows and 2 columns.
Reduced MIP has 1241 rows, 747 columns, and 3712 nonzeros.
Reduced MIP has 747 binaries, 0 generals, 0 SOSs, and 0 indicators.
Presolve time = 0.01 sec. (4.01 ticks)
Probing time = 0.00 sec. (0.73 ticks)
Clique table members: 1161.
MIP emphasis: balance optimality and feasibility.
MIP search method: dynamic search.
Parallel mode: none, using 1 thread.
Root relaxation solution time = 0.01 sec. (10.75 ticks)

        Nodes                                         Cuts/
   Node  Left     Objective  IInf  Best Integer    Best Bound    ItCnt     Gap

*     0+    0                            0.0000      150.0000              --- 
      0     0      150.0000   275        0.0000      150.0000      300     --- 
      0     0      139.5000   273        0.0000     Cuts: 322      696     --- 
      0     0      108.0000   318        0.0000     Cuts: 235     1100     --- 
      0     0      100.0000   454        0.0000     Cuts: 148     1375     --- 
      0     0      100.0000   470        0.0000 ZeroHalf: 104     1504     --- 
*     0+    0                           72.0000      100.0000            38.89%
      0     0      100.0000   348       72.0000       Cuts: 7     1547   38.89%
*     0+    0                           90.0000      100.0000            11.11%
Detecting symmetries...
      0     0      100.0000   372       90.0000     Cuts: 115     1602   11.11%
*     0+    0                           92.0000      100.0000             8.70%
      0     0        cutoff             92.0000      100.0000     1602    8.70%
Detecting symmetries...
      0     2      100.0000   372       92.0000      100.0000     1602    8.70%
Elapsed time = 0.46 sec. (297.44 ticks, tree = 0.01 MB, solutions = 4)
*    10+    1                          100.0000      100.0000             0.00%

GUB cover cuts applied:  6
Clique cuts applied:  5
Cover cuts applied:  278
Implied bound cuts applied:  1
Mixed integer rounding cuts applied:  2
Zero-half cuts applied:  32
Gomory fractional cuts applied:  26

Root node processing (before b&c):
  Real time             =    0.46 sec. (297.41 ticks)
Sequential b&c:
  Real time             =    0.22 sec. (165.92 ticks)
                          ------------
Total (root+branch&cut) =    0.68 sec. (463.33 ticks)
Solution is feasible.

---------------------
@@@ MIP_optimal
>>> Benchmark flat50-9.cnf k 2 OPT 100 TimeCost 0.779731273651123 TimeSolve 0.6929373741149902 TimeRead 0.0021865367889404297 TimeTrans 0.08460736274719238
